WARNING: for repeatability, setting FPU to use double precision
============================[ Problem Statistics ]=============================
|                                                                             |
|  Number of variables:            50                                         |
|  Number of clauses:             218                                         |
|  Parse time:                   0.00 s                                       |
|                                                                             |
============================[ Search Statistics ]==============================
| Conflicts |          ORIGINAL         |          LEARNT          | Progress |
|           |    Vars  Clauses Literals |    Limit  Clauses Lit/Cl |          |
===============================================================================
===============================================================================
restarts              : 1
conflicts             : 78             (329114 /sec)
decisions             : 96             (0.00 % random) (405063 /sec)
propagations          : 1114           (4700422 /sec)
conflict literals     : 327            (14.40 % deleted)
Memory used           : 20.00 MB
CPU time              : 0.000237 s

SATISFIABLE
